33D32945 STP File, STP Format Version 1.0

SECTION Comment
Name    "i160-342"
Creator "Cees Duin"
Remark  "Incidence graph"
END

SECTION Graph
Nodes 160
Edges 2544
E 1 3 302
E 1 5 310
E 1 20 294
E 1 29 303
E 1 32 298
E 1 37 306
E 1 40 294
E 1 41 204
E 1 48 201
E 1 49 198
E 1 50 186
E 1 52 196
E 1 55 191
E 1 61 197
E 1 67 194
E 1 71 206
E 1 72 206
E 1 82 193
E 1 83 208
E 1 85 194
E 1 94 198
E 1 96 191
E 1 98 197
E 1 99 203
E 1 103 204
E 1 105 199
E 1 107 194
E 1 123 197
E 1 130 197
E 1 132 200
E 1 146 191
E 1 150 202
E 1 152 200
E 1 156 198
E 2 16 306
E 2 23 300
E 2 27 303
E 2 32 302
E 2 41 203
E 2 44 200
E 2 45 202
E 2 49 195
E 2 63 201
E 2 66 205
E 2 71 204
E 2 78 197
E 2 91 202
E 2 96 185
E 2 98 198
E 2 101 203
E 2 115 204
E 2 118 204
E 2 128 197
E 2 130 195
E 2 133 196
E 2 155 203
E 2 159 192
E 3 11 294
E 3 19 289
E 3 26 292
E 3 27 296
E 3 31 300
E 3 34 288
E 3 35 299
E 3 40 295
E 3 44 209
E 3 48 195
E 3 58 202
E 3 59 205
E 3 66 191
E 3 67 202
E 3 71 197
E 3 76 193
E 3 80 199
E 3 89 202
E 3 97 202
E 3 100 208
E 3 101 193
E 3 109 202
E 3 120 195
E 3 122 192
E 3 125 200
E 3 127 199
E 3 137 203
E 3 138 200
E 3 144 197
E 3 151 204
E 3 155 201
E 3 158 202
E 4 5 306
E 4 7 303
E 4 12 292
E 4 20 302
E 4 25 294
E 4 31 295
E 4 36 304
E 4 39 299
E 4 45 200
E 4 52 198
E 4 55 213
E 4 64 201
E 4 80 203
E 4 85 198
E 4 88 198
E 4 94 195
E 4 100 188
E 4 105 199
E 4 115 202
E 4 128 199
E 4 138 199
E 4 140 194
E 4 148 200
E 4 151 192
E 4 157 193
E 5 7 300
E 5 8 306
E 5 9 301
E 5 21 302
E 5 25 301
E 5 28 302
E 5 31 301
E 5 36 294
E 5 39 304
E 5 42 198
E 5 57 199
E 5 60 196
E 5 64 196
E 5 65 204
E 5 66 201
E 5 80 194
E 5 82 203
E 5 88 202
E 5 99 201
E 5 101 193
E 5 108 198
E 5 110 202
E 5 113 201
E 5 115 195
E 5 118 200
E 5 125 201
E 5 128 204
E 5 132 197
E 5 136 201
E 5 142 197
E 5 148 201
E 5 154 200
E 5 155 197
E 5 157 198
E 5 159 194
E 6 11 300
E 6 12 297
E 6 15 303
E 6 27 301
E 6 33 301
E 6 37 303
E 6 48 199
E 6 50 209
E 6 54 196
E 6 55 195
E 6 58 205
E 6 69 192
E 6 71 193
E 6 88 191
E 6 96 204
E 6 97 198
E 6 112 200
E 6 120 197
E 6 132 204
E 6 135 202
E 6 136 199
E 6 140 197
E 6 144 202
E 6 147 201
E 6 149 203
E 6 155 201
E 7 18 300
E 7 26 311
E 7 27 298
E 7 28 304
E 7 38 300
E 7 42 193
E 7 44 193
E 7 47 208
E 7 48 201
E 7 54 199
E 7 57 206
E 7 69 199
E 7 70 203
E 7 78 194
E 7 81 195
E 7 82 195
E 7 85 199
E 7 97 195
E 7 98 195
E 7 101 190
E 7 103 201
E 7 111 201
E 7 113 197
E 7 122 203
E 7 134 195
E 7 137 196
E 7 139 206
E 7 143 197
E 7 158 197
E 8 9 301
E 8 10 293
E 8 12 303
E 8 25 300
E 8 27 300
E 8 30 307
E 8 31 292
E 8 34 296
E 8 41 195
E 8 42 200
E 8 46 202
E 8 48 190
E 8 50 192
E 8 52 195
E 8 61 192
E 8 64 204
E 8 65 191
E 8 87 201
E 8 99 203
E 8 106 203
E 8 117 198
E 8 130 198
E 8 137 205
E 8 141 209
E 8 143 194
E 8 157 195
E 9 14 303
E 9 23 300
E 9 26 296
E 9 27 288
E 9 28 296
E 9 29 295
E 9 33 300
E 9 34 297
E 9 42 198
E 9 43 194
E 9 48 208
E 9 51 197
E 9 52 203
E 9 58 201
E 9 65 201
E 9 66 194
E 9 72 197
E 9 73 194
E 9 74 195
E 9 75 198
E 9 77 194
E 9 83 199
E 9 84 202
E 9 88 190
E 9 94 193
E 9 96 202
E 9 99 203
E 9 102 199
E 9 105 194
E 9 111 194
E 9 113 200
E 9 118 209
E 9 120 195
E 9 123 207
E 9 126 189
E 9 129 211
E 9 130 198
E 9 131 205
E 9 132 208
E 9 134 209
E 9 146 203
E 9 151 198
E 9 153 199
E 9 155 195
E 10 21 299
E 10 29 300
E 10 30 302
E 10 40 295
E 10 42 205
E 10 44 204
E 10 55 192
E 10 58 198
E 10 60 190
E 10 63 193
E 10 72 202
E 10 76 201
E 10 83 204
E 10 93 192
E 10 96 198
E 10 98 199
E 10 100 207
E 10 106 193
E 10 111 199
E 10 116 201
E 10 120 198
E 10 122 194
E 10 138 197
E 10 140 201
E 10 146 201
E 10 147 193
E 10 149 201
E 10 150 198
E 10 152 197
E 10 155 203
E 10 156 201
E 10 159 201
E 10 160 199
E 11 12 301
E 11 23 294
E 11 28 304
E 11 35 293
E 11 37 297
E 11 39 304
E 11 40 306
E 11 44 193
E 11 45 200
E 11 49 201
E 11 52 199
E 11 56 206
E 11 60 199
E 11 74 202
E 11 76 207
E 11 82 208
E 11 87 211
E 11 88 193
E 11 106 201
E 11 107 204
E 11 111 202
E 11 113 201
E 11 114 197
E 11 115 210
E 11 119 200
E 11 125 197
E 11 126 199
E 11 127 208
E 11 139 203
E 11 140 198
E 11 143 200
E 11 150 194
E 11 154 201
E 11 156 197
E 12 16 302
E 12 19 298
E 12 29 296
E 12 33 298
E 12 36 301
E 12 46 205
E 12 49 198
E 12 51 193
E 12 55 194
E 12 57 204
E 12 67 193
E 12 69 194
E 12 73 197
E 12 80 198
E 12 81 191
E 12 85 204
E 12 104 193
E 12 105 203
E 12 108 191
E 12 117 197
E 12 124 184
E 12 126 193
E 12 131 209
E 12 137 204
E 12 142 205
E 12 143 198
E 12 151 195
E 13 15 298
E 13 19 293
E 13 23 294
E 13 27 304
E 13 37 298
E 13 46 194
E 13 47 198
E 13 50 198
E 13 58 202
E 13 59 192
E 13 60 197
E 13 62 196
E 13 87 202
E 13 88 197
E 13 92 202
E 13 102 197
E 13 108 192
E 13 111 196
E 13 112 200
E 13 124 203
E 13 125 205
E 13 142 193
E 13 146 203
E 13 152 195
E 13 156 199
E 14 18 302
E 14 28 289
E 14 30 294
E 14 33 297
E 14 42 187
E 14 43 191
E 14 49 202
E 14 60 193
E 14 63 203
E 14 67 203
E 14 69 197
E 14 73 198
E 14 83 200
E 14 85 203
E 14 96 200
E 14 101 196
E 14 102 201
E 14 103 198
E 14 111 199
E 14 114 201
E 14 119 206
E 14 121 198
E 14 123 209
E 14 124 192
E 14 139 206
E 14 146 212
E 14 159 199
E 15 23 302
E 15 33 296
E 15 38 306
E 15 40 291
E 15 51 198
E 15 63 197
E 15 66 203
E 15 70 194
E 15 77 198
E 15 80 202
E 15 82 207
E 15 92 189
E 15 94 195
E 15 99 200
E 15 100 202
E 15 102 197
E 15 103 191
E 15 104 204
E 15 108 202
E 15 109 203
E 15 117 199
E 15 118 201
E 15 119 202
E 15 123 207
E 15 126 204
E 15 132 207
E 15 133 206
E 15 135 195
E 15 137 198
E 15 139 194
E 15 140 203
E 15 141 204
E 15 150 201
E 15 152 202
E 15 155 205
E 15 157 201
E 15 159 202
E 16 18 299
E 16 23 295
E 16 24 304
E 16 26 299
E 16 29 297
E 16 40 302
E 16 44 206
E 16 45 199
E 16 52 211
E 16 58 200
E 16 63 206
E 16 65 209
E 16 66 199
E 16 72 196
E 16 77 193
E 16 82 192
E 16 85 194
E 16 97 196
E 16 102 197
E 16 103 194
E 16 107 194
E 16 120 195
E 16 125 202
E 16 127 197
E 16 129 198
E 16 130 192
E 16 132 202
E 16 141 204
E 16 148 199
E 16 152 203
E 16 154 195
E 16 155 202
E 16 160 198
E 17 19 298
E 17 22 293
E 17 28 300
E 17 45 189
E 17 47 196
E 17 51 204
E 17 57 193
E 17 59 203
E 17 70 192
E 17 98 195
E 17 105 201
E 17 122 201
E 17 125 200
E 17 130 205
E 17 139 208
E 17 143 200
E 17 149 191
E 17 153 191
E 17 160 206
E 18 22 297
E 18 26 293
E 18 31 299
E 18 42 198
E 18 44 201
E 18 47 208
E 18 48 194
E 18 59 198
E 18 62 201
E 18 66 200
E 18 77 198
E 18 82 196
E 18 83 199
E 18 84 201
E 18 89 201
E 18 93 195
E 18 95 196
E 18 97 203
E 18 101 193
E 18 104 199
E 18 105 202
E 18 116 194
E 18 117 189
E 18 124 208
E 18 125 205
E 18 126 192
E 18 134 211
E 18 137 202
E 18 146 200
E 18 150 202
E 18 153 198
E 18 160 194
E 19 27 299
E 19 28 300
E 19 45 195
E 19 50 210
E 19 57 198
E 19 60 197
E 19 62 193
E 19 73 197
E 19 81 199
E 19 86 194
E 19 89 199
E 19 100 198
E 19 105 201
E 19 107 199
E 19 112 203
E 19 114 206
E 19 118 199
E 19 120 198
E 19 123 202
E 19 132 194
E 19 136 195
E 19 142 202
E 19 152 195
E 19 157 203
E 20 29 302
E 20 32 296
E 20 39 298
E 20 43 203
E 20 44 205
E 20 50 205
E 20 78 198
E 20 82 205
E 20 106 198
E 20 108 203
E 20 109 206
E 20 113 219
E 20 119 203
E 20 121 205
E 20 125 191
E 20 129 196
E 20 132 195
E 20 133 213
E 20 136 196
E 20 141 194
E 20 142 199
E 20 143 193
E 20 145 206
E 20 152 206
E 20 155 202
E 20 160 197
E 21 24 301
E 21 34 300
E 21 36 298
E 21 37 298
E 21 38 313
E 21 41 197
E 21 43 193
E 21 44 199
E 21 47 197
E 21 52 202
E 21 59 193
E 21 72 206
E 21 73 204
E 21 79 196
E 21 83 211
E 21 86 199
E 21 90 196
E 21 110 194
E 21 112 193
E 21 115 204
E 21 122 189
E 21 133 201
E 21 141 191
E 21 145 201
E 21 148 203
E 21 154 189
E 21 158 195
E 22 53 205
E 22 55 205
E 22 60 196
E 22 61 198
E 22 69 207
E 22 73 202
E 22 75 193
E 22 77 196
E 22 87 192
E 22 91 199
E 22 94 198
E 22 96 206
E 22 110 198
E 22 124 203
E 22 135 199
E 22 142 194
E 22 145 196
E 22 158 197
E 23 40 297
E 23 48 194
E 23 52 202
E 23 53 211
E 23 57 194
E 23 58 201
E 23 62 194
E 23 66 204
E 23 79 195
E 23 82 198
E 23 84 193
E 23 96 201
E 23 97 203
E 23 99 200
E 23 107 201
E 23 114 201
E 23 116 203
E 23 119 199
E 23 126 197
E 23 131 203
E 23 135 203
E 23 139 194
E 23 143 194
E 23 146 195
E 23 155 190
E 23 156 203
E 24 25 295
E 24 34 307
E 24 42 193
E 24 43 195
E 24 47 197
E 24 50 203
E 24 51 198
E 24 55 198
E 24 61 195
E 24 64 199
E 24 78 203
E 24 79 200
E 24 92 204
E 24 95 199
E 24 96 210
E 24 99 204
E 24 101 199
E 24 104 196
E 24 107 200
E 24 108 203
E 24 116 216
E 24 119 195
E 24 125 210
E 24 129 193
E 24 130 201
E 24 136 196
E 24 137 202
E 24 139 196
E 24 149 203
E 24 150 203
E 24 151 209
E 25 32 303
E 25 36 298
E 25 39 305
E 25 52 196
E 25 59 197
E 25 60 198
E 25 68 212
E 25 71 200
E 25 73 189
E 25 76 189
E 25 83 200
E 25 84 200
E 25 86 199
E 25 95 198
E 25 104 203
E 25 105 200
E 25 112 200
E 25 114 210
E 25 115 200
E 25 116 192
E 25 117 202
E 25 130 207
E 25 133 193
E 25 152 203
E 25 153 201
E 25 155 197
E 26 29 296
E 26 33 302
E 26 34 295
E 26 36 305
E 26 40 300
E 26 47 202
E 26 48 200
E 26 49 197
E 26 56 202
E 26 66 195
E 26 69 208
E 26 71 211
E 26 72 192
E 26 85 205
E 26 88 204
E 26 100 188
E 26 101 201
E 26 102 190
E 26 103 203
E 26 107 199
E 26 108 202
E 26 111 201
E 26 113 205
E 26 114 194
E 26 119 194
E 26 127 200
E 26 128 200
E 26 130 192
E 26 132 199
E 26 135 200
E 26 136 196
E 26 143 201
E 26 150 195
E 26 152 195
E 26 156 191
E 26 159 203
E 26 160 192
E 27 29 301
E 27 32 306
E 27 36 305
E 27 40 296
E 27 44 201
E 27 47 198
E 27 52 201
E 27 58 200
E 27 67 198
E 27 71 192
E 27 74 211
E 27 79 202
E 27 84 202
E 27 88 198
E 27 90 197
E 27 91 196
E 27 94 201
E 27 96 199
E 27 108 204
E 27 118 193
E 27 122 191
E 27 128 197
E 27 131 197
E 27 133 195
E 27 136 202
E 27 139 199
E 27 140 202
E 27 143 196
E 27 148 196
E 27 149 200
E 27 151 198
E 27 154 200
E 27 156 205
E 28 34 300
E 28 39 300
E 28 45 207
E 28 46 195
E 28 51 197
E 28 53 201
E 28 58 197
E 28 60 196
E 28 64 204
E 28 65 195
E 28 67 203
E 28 72 192
E 28 80 208
E 28 92 201
E 28 98 201
E 28 109 201
E 28 110 198
E 28 122 199
E 28 130 199
E 28 131 200
E 28 138 194
E 28 145 203
E 28 150 200
E 28 159 209
E 29 36 307
E 29 37 297
E 29 48 200
E 29 52 203
E 29 58 196
E 29 61 199
E 29 69 200
E 29 74 200
E 29 82 198
E 29 84 202
E 29 86 201
E 29 90 201
E 29 99 194
E 29 110 197
E 29 118 197
E 29 130 190
E 29 131 183
E 29 134 206
E 29 137 198
E 29 138 201
E 29 139 196
E 29 143 202
E 29 144 190
E 29 155 205
E 29 158 203
E 29 160 202
E 30 32 306
E 30 36 302
E 30 37 297
E 30 38 300
E 30 50 201
E 30 54 190
E 30 55 195
E 30 61 197
E 30 68 199
E 30 78 199
E 30 90 208
E 30 91 209
E 30 104 206
E 30 111 194
E 30 121 205
E 30 127 204
E 30 128 199
E 30 132 203
E 30 141 195
E 30 145 194
E 30 149 203
E 30 150 195
E 30 151 201
E 30 153 206
E 30 154 196
E 30 159 202
E 30 160 204
E 31 34 298
E 31 38 292
E 31 39 296
E 31 60 207
E 31 61 208
E 31 64 205
E 31 68 204
E 31 69 194
E 31 76 200
E 31 79 207
E 31 80 198
E 31 84 194
E 31 86 200
E 31 93 195
E 31 97 200
E 31 107 198
E 31 108 196
E 31 114 206
E 31 117 198
E 31 119 198
E 31 120 200
E 31 123 200
E 31 128 199
E 31 129 192
E 31 132 196
E 31 133 202
E 31 135 198
E 31 137 200
E 31 142 203
E 31 159 195
E 32 47 206
E 32 48 201
E 32 58 208
E 32 60 197
E 32 62 205
E 32 69 194
E 32 72 192
E 32 75 207
E 32 81 202
E 32 83 200
E 32 85 203
E 32 95 194
E 32 96 197
E 32 107 200
E 32 108 192
E 32 110 196
E 32 117 206
E 32 119 204
E 32 120 197
E 32 123 202
E 32 126 197
E 32 127 209
E 32 135 206
E 32 155 191
E 32 156 204
E 32 159 198
E 33 34 298
E 33 38 294
E 33 63 199
E 33 65 190
E 33 67 202
E 33 73 202
E 33 78 192
E 33 80 202
E 33 84 204
E 33 86 203
E 33 91 204
E 33 100 199
E 33 102 195
E 33 104 202
E 33 119 200
E 33 129 211
E 33 130 196
E 33 133 193
E 33 134 201
E 33 137 197
E 33 139 194
E 33 147 197
E 33 148 209
E 33 149 191
E 33 156 201
E 33 158 197
E 34 38 300
E 34 40 303
E 34 47 203
E 34 53 197
E 34 54 187
E 34 57 202
E 34 58 199
E 34 63 201
E 34 75 194
E 34 81 199
E 34 92 195
E 34 93 194
E 34 96 200
E 34 97 205
E 34 108 202
E 34 113 192
E 34 115 198
E 34 116 195
E 34 117 200
E 34 126 198
E 34 127 195
E 34 129 197
E 34 132 203
E 34 138 205
E 34 149 191
E 34 159 200
E 35 61 207
E 35 65 197
E 35 68 203
E 35 70 189
E 35 72 207
E 35 75 192
E 35 76 209
E 35 82 196
E 35 84 197
E 35 106 197
E 35 112 198
E 35 120 200
E 35 130 200
E 35 136 196
E 35 152 198
E 36 44 202
E 36 48 205
E 36 50 199
E 36 70 200
E 36 73 203
E 36 83 199
E 36 93 204
E 36 98 206
E 36 99 192
E 36 110 195
E 36 114 203
E 36 117 192
E 36 124 202
E 36 136 202
E 36 137 192
E 36 146 196
E 36 147 198
E 36 160 206
E 37 38 288
E 37 39 306
E 37 41 203
E 37 42 203
E 37 43 201
E 37 49 197
E 37 53 201
E 37 54 187
E 37 61 197
E 37 68 205
E 37 83 202
E 37 84 207
E 37 91 201
E 37 98 205
E 37 108 191
E 37 111 194
E 37 112 198
E 37 113 193
E 37 120 196
E 37 121 202
E 37 122 197
E 37 128 197
E 37 136 199
E 37 140 208
E 37 148 197
E 37 149 195
E 37 153 201
E 37 154 210
E 38 43 209
E 38 47 200
E 38 49 199
E 38 55 205
E 38 56 194
E 38 73 197
E 38 75 206
E 38 80 195
E 38 92 200
E 38 100 199
E 38 102 198
E 38 115 195
E 38 116 206
E 38 119 195
E 38 120 190
E 38 127 193
E 38 131 199
E 38 132 199
E 38 139 203
E 38 146 195
E 38 152 198
E 38 156 203
E 38 160 200
E 39 43 198
E 39 47 204
E 39 50 190
E 39 52 201
E 39 66 194
E 39 70 203
E 39 74 197
E 39 78 196
E 39 89 194
E 39 90 201
E 39 92 205
E 39 98 207
E 39 99 192
E 39 103 193
E 39 113 201
E 39 120 193
E 39 128 194
E 39 133 198
E 39 134 199
E 39 145 209
E 39 160 195
E 40 43 200
E 40 46 196
E 40 47 193
E 40 48 194
E 40 53 197
E 40 54 204
E 40 64 207
E 40 65 203
E 40 67 199
E 40 74 202
E 40 76 203
E 40 77 198
E 40 80 199
E 40 83 202
E 40 85 196
E 40 90 199
E 40 93 192
E 40 94 191
E 40 95 198
E 40 100 204
E 40 104 189
E 40 108 197
E 40 109 196
E 40 111 195
E 40 133 200
E 40 139 197
E 40 146 204
E 40 151 203
E 40 152 197
E 40 157 193
E 41 43 94
E 41 63 99
E 41 68 90
E 41 69 97
E 41 71 89
E 41 73 99
E 41 78 94
E 41 81 103
E 41 84 97
E 41 88 103
E 41 100 97
E 41 107 100
E 41 110 99
E 41 112 89
E 41 114 102
E 41 119 90
E 41 129 103
E 41 131 96
E 41 132 102
E 41 134 102
E 41 137 95
E 41 139 97
E 41 140 104
E 41 149 103
E 41 151 96
E 41 153 92
E 42 48 100
E 42 51 97
E 42 57 98
E 42 62 106
E 42 63 106
E 42 68 107
E 42 69 94
E 42 89 99
E 42 93 95
E 42 96 104
E 42 101 93
E 42 102 95
E 42 103 101
E 42 110 99
E 42 114 107
E 42 118 101
E 42 120 98
E 42 123 101
E 42 144 107
E 42 147 100
E 42 148 87
E 42 157 102
E 42 159 99
E 43 45 101
E 43 48 106
E 43 58 96
E 43 68 99
E 43 70 101
E 43 75 104
E 43 78 97
E 43 83 99
E 43 85 110
E 43 86 90
E 43 92 94
E 43 108 98
E 43 114 102
E 43 120 104
E 43 121 101
E 43 129 92
E 43 130 92
E 43 134 107
E 43 136 97
E 43 140 97
E 43 146 99
E 43 151 104
E 43 152 113
E 43 157 91
E 44 56 88
E 44 68 105
E 44 69 106
E 44 71 106
E 44 76 105
E 44 90 100
E 44 98 100
E 44 99 96
E 44 100 97
E 44 103 91
E 44 114 103
E 44 116 104
E 44 123 105
E 44 129 112
E 44 130 104
E 44 140 96
E 44 145 106
E 44 153 98
E 44 156 97
E 45 47 100
E 45 49 93
E 45 63 95
E 45 69 102
E 45 79 102
E 45 84 98
E 45 93 100
E 45 94 96
E 45 97 108
E 45 98 99
E 45 101 93
E 45 102 96
E 45 103 98
E 45 105 97
E 45 106 107
E 45 112 103
E 45 118 106
E 45 120 102
E 45 121 93
E 45 122 91
E 45 135 97
E 45 136 106
E 45 156 105
E 45 159 100
E 46 49 106
E 46 51 106
E 46 59 100
E 46 61 98
E 46 72 92
E 46 74 90
E 46 82 102
E 46 84 98
E 46 87 96
E 46 88 100
E 46 89 94
E 46 92 106
E 46 102 93
E 46 107 99
E 46 108 105
E 46 110 105
E 46 112 97
E 46 117 91
E 46 118 95
E 46 119 101
E 46 120 106
E 46 123 95
E 46 138 106
E 46 139 108
E 46 142 98
E 46 148 101
E 46 149 99
E 46 154 96
E 46 158 95
E 46 159 96
E 47 53 104
E 47 55 98
E 47 60 98
E 47 65 103
E 47 69 101
E 47 78 108
E 47 79 103
E 47 88 103
E 47 95 95
E 47 97 110
E 47 98 98
E 47 99 99
E 47 102 100
E 47 103 101
E 47 107 101
E 47 110 98
E 47 118 107
E 47 124 96
E 47 132 105
E 47 140 101
E 48 49 93
E 48 59 93
E 48 62 89
E 48 66 99
E 48 76 99
E 48 79 97
E 48 86 91
E 48 88 103
E 48 97 105
E 48 98 95
E 48 99 98
E 48 117 97
E 48 122 101
E 48 125 104
E 48 126 111
E 48 144 92
E 48 145 95
E 48 146 100
E 48 157 100
E 49 56 99
E 49 57 94
E 49 67 100
E 49 80 96
E 49 93 100
E 49 96 98
E 49 98 94
E 49 99 94
E 49 100 101
E 49 104 100
E 49 108 106
E 49 109 106
E 49 110 107
E 49 113 101
E 49 119 101
E 49 120 98
E 49 122 103
E 49 131 103
E 49 133 97
E 49 136 92
E 49 143 110
E 49 145 98
E 49 153 102
E 50 62 99
E 50 65 86
E 50 70 97
E 50 73 97
E 50 80 97
E 50 88 96
E 50 89 106
E 50 90 105
E 50 91 97
E 50 108 108
E 50 118 102
E 50 119 90
E 50 137 98
E 50 152 102
E 50 158 99
E 51 53 108
E 51 66 106
E 51 68 105
E 51 70 100
E 51 73 97
E 51 77 101
E 51 101 101
E 51 103 107
E 51 112 100
E 51 119 96
E 51 135 104
E 51 138 93
E 51 140 100
E 51 148 100
E 51 149 87
E 51 158 106
E 52 59 105
E 52 61 95
E 52 63 99
E 52 66 104
E 52 81 91
E 52 82 92
E 52 85 86
E 52 89 90
E 52 90 107
E 52 97 101
E 52 98 98
E 52 119 98
E 52 121 104
E 52 129 93
E 52 136 105
E 52 140 94
E 52 141 111
E 52 142 101
E 52 148 99
E 52 152 98
E 52 155 101
E 52 157 109
E 53 58 99
E 53 60 98
E 53 61 99
E 53 69 104
E 53 74 97
E 53 90 101
E 53 95 103
E 53 96 103
E 53 101 101
E 53 108 104
E 53 116 97
E 53 117 103
E 53 121 95
E 53 122 97
E 53 128 103
E 53 133 95
E 53 134 101
E 53 138 92
E 53 140 98
E 53 146 97
E 53 149 104
E 54 55 103
E 54 60 92
E 54 61 99
E 54 64 107
E 54 65 102
E 54 66 98
E 54 67 89
E 54 69 98
E 54 74 105
E 54 76 98
E 54 77 112
E 54 78 97
E 54 85 102
E 54 88 104
E 54 97 106
E 54 98 97
E 54 99 101
E 54 100 89
E 54 102 105
E 54 103 100
E 54 105 95
E 54 106 97
E 54 108 94
E 54 110 107
E 54 111 104
E 54 123 102
E 54 127 101
E 54 133 108
E 54 138 104
E 54 147 95
E 54 148 100
E 54 149 102
E 54 150 104
E 54 152 101
E 54 153 98
E 54 156 107
E 54 157 99
E 55 68 100
E 55 78 98
E 55 81 94
E 55 83 92
E 55 84 104
E 55 85 103
E 55 91 94
E 55 94 107
E 55 101 100
E 55 103 108
E 55 106 102
E 55 111 103
E 55 117 102
E 55 119 97
E 55 125 88
E 55 144 96
E 55 158 91
E 56 57 106
E 56 63 104
E 56 69 96
E 56 70 95
E 56 82 111
E 56 84 93
E 56 90 93
E 56 95 98
E 56 100 95
E 56 104 104
E 56 107 104
E 56 109 103
E 56 114 101
E 56 115 99
E 56 118 111
E 56 129 90
E 56 132 93
E 56 134 98
E 56 135 109
E 56 143 99
E 56 153 97
E 56 156 95
E 56 158 101
E 57 62 101
E 57 72 103
E 57 90 97
E 57 99 112
E 57 101 102
E 57 112 99
E 57 128 105
E 57 136 92
E 57 139 102
E 57 143 103
E 57 144 100
E 57 146 108
E 57 148 102
E 57 150 99
E 57 152 107
E 57 153 104
E 57 156 103
E 57 158 106
E 58 59 102
E 58 65 101
E 58 69 100
E 58 71 92
E 58 72 98
E 58 77 99
E 58 80 95
E 58 83 93
E 58 87 101
E 58 98 90
E 58 100 99
E 58 102 93
E 58 106 104
E 58 118 99
E 58 121 104
E 58 130 106
E 58 136 92
E 58 143 98
E 58 144 104
E 58 145 95
E 58 152 108
E 59 60 93
E 59 67 98
E 59 74 103
E 59 76 92
E 59 82 96
E 59 86 97
E 59 90 103
E 59 93 90
E 59 100 109
E 59 108 102
E 59 112 101
E 59 114 99
E 59 117 99
E 59 119 96
E 59 136 97
E 59 146 99
E 59 156 96
E 60 65 88
E 60 73 102
E 60 79 108
E 60 84 100
E 60 92 101
E 60 99 101
E 60 107 107
E 60 119 94
E 60 127 91
E 60 144 105
E 60 146 97
E 60 147 99
E 60 150 102
E 60 155 96
E 60 157 95
E 61 67 100
E 61 70 113
E 61 75 97
E 61 77 96
E 61 82 103
E 61 86 98
E 61 94 93
E 61 98 94
E 61 99 97
E 61 106 111
E 61 110 103
E 61 115 102
E 61 116 104
E 61 129 102
E 61 134 95
E 61 135 98
E 61 139 107
E 61 142 99
E 61 145 99
E 61 149 105
E 61 151 101
E 61 157 97
E 62 64 104
E 62 65 98
E 62 69 106
E 62 72 97
E 62 84 96
E 62 93 99
E 62 95 102
E 62 96 97
E 62 99 95
E 62 108 94
E 62 113 104
E 62 116 107
E 62 123 94
E 62 130 101
E 62 139 98
E 62 144 83
E 62 146 94
E 62 153 112
E 62 155 106
E 62 159 105
E 63 64 105
E 63 80 105
E 63 84 96
E 63 85 94
E 63 87 93
E 63 93 92
E 63 96 109
E 63 98 93
E 63 102 99
E 63 104 103
E 63 105 102
E 63 107 103
E 63 116 86
E 63 118 108
E 63 133 97
E 63 134 102
E 63 138 100
E 63 139 105
E 63 159 102
E 63 160 103
E 64 75 102
E 64 85 111
E 64 87 100
E 64 88 94
E 64 93 95
E 64 104 107
E 64 114 100
E 64 116 101
E 64 117 99
E 64 118 97
E 64 119 109
E 64 122 88
E 64 133 100
E 64 137 99
E 64 140 95
E 64 141 92
E 64 142 99
E 64 151 111
E 64 152 97
E 64 153 102
E 64 158 98
E 64 159 99
E 65 72 100
E 65 83 97
E 65 84 101
E 65 99 91
E 65 111 102
E 65 114 102
E 65 115 104
E 65 116 99
E 65 117 90
E 65 118 100
E 65 132 109
E 65 137 96
E 65 139 106
E 65 140 96
E 65 146 104
E 65 149 99
E 65 159 101
E 66 68 103
E 66 70 102
E 66 71 99
E 66 83 96
E 66 92 100
E 66 95 101
E 66 97 99
E 66 98 95
E 66 121 98
E 66 123 94
E 66 133 95
E 66 134 98
E 66 135 105
E 66 139 95
E 66 152 101
E 66 156 101
E 66 157 108
E 66 159 97
E 67 69 103
E 67 77 103
E 67 80 105
E 67 81 96
E 67 86 93
E 67 87 102
E 67 89 101
E 67 91 98
E 67 101 105
E 67 103 99
E 67 113 100
E 67 118 100
E 67 122 111
E 67 124 103
E 67 128 103
E 67 131 96
E 67 138 98
E 67 145 96
E 67 153 96
E 67 155 105
E 67 157 101
E 68 72 103
E 68 75 103
E 68 78 106
E 68 79 99
E 68 96 104
E 68 97 90
E 68 101 88
E 68 102 98
E 68 103 111
E 68 114 93
E 68 116 99
E 68 117 88
E 68 122 98
E 68 126 99
E 68 129 100
E 68 133 100
E 68 137 94
E 68 148 95
E 68 152 111
E 68 153 94
E 68 159 90
E 69 73 94
E 69 79 100
E 69 85 93
E 69 86 95
E 69 95 96
E 69 97 100
E 69 104 105
E 69 115 105
E 69 117 101
E 69 121 102
E 69 125 98
E 69 126 107
E 69 129 99
E 69 131 97
E 69 133 102
E 69 138 96
E 69 142 98
E 69 146 102
E 69 154 96
E 69 158 98
E 69 160 104
E 70 72 101
E 70 93 99
E 70 94 94
E 70 96 94
E 70 98 107
E 70 105 91
E 70 115 90
E 70 122 100
E 70 123 95
E 70 125 97
E 70 126 96
E 70 136 98
E 70 148 89
E 70 154 96
E 70 155 107
E 70 156 102
E 71 81 98
E 71 82 96
E 71 84 101
E 71 89 99
E 71 93 98
E 71 95 113
E 71 106 105
E 71 111 94
E 71 113 95
E 71 116 102
E 71 117 97
E 71 129 92
E 71 139 102
E 71 140 105
E 71 143 101
E 71 149 98
E 71 159 99
E 72 93 101
E 72 103 96
E 72 104 100
E 72 115 96
E 72 119 107
E 72 126 97
E 72 129 103
E 72 135 100
E 72 142 94
E 72 147 94
E 72 156 102
E 72 157 100
E 73 74 103
E 73 77 104
E 73 80 99
E 73 86 91
E 73 97 99
E 73 101 106
E 73 105 101
E 73 106 102
E 73 107 102
E 73 114 96
E 73 128 95
E 73 129 100
E 73 133 99
E 73 135 110
E 73 138 95
E 73 139 93
E 73 144 104
E 73 152 103
E 73 153 106
E 73 156 99
E 73 159 98
E 74 78 89
E 74 80 98
E 74 82 92
E 74 83 101
E 74 91 102
E 74 98 98
E 74 99 100
E 74 100 96
E 74 106 111
E 74 108 103
E 74 110 100
E 74 115 97
E 74 136 100
E 74 137 92
E 74 141 105
E 74 148 88
E 74 149 99
E 75 83 107
E 75 87 102
E 75 91 102
E 75 92 97
E 75 99 98
E 75 113 102
E 75 114 95
E 75 115 99
E 75 116 104
E 75 130 92
E 75 132 96
E 75 136 99
E 75 137 102
E 75 139 98
E 75 142 99
E 75 149 95
E 76 79 101
E 76 80 103
E 76 87 92
E 76 93 98
E 76 94 111
E 76 97 96
E 76 104 96
E 76 106 97
E 76 108 96
E 76 115 104
E 76 118 89
E 76 137 99
E 76 143 95
E 76 153 102
E 76 159 106
E 77 78 99
E 77 79 94
E 77 81 95
E 77 83 96
E 77 84 99
E 77 85 99
E 77 93 90
E 77 95 97
E 77 96 100
E 77 101 89
E 77 106 101
E 77 110 92
E 77 115 84
E 77 118 98
E 77 119 96
E 77 124 98
E 77 127 102
E 77 128 101
E 77 132 98
E 77 138 105
E 77 142 100
E 78 83 91
E 78 87 103
E 78 91 104
E 78 97 104
E 78 108 101
E 78 113 95
E 78 117 93
E 78 119 98
E 78 121 102
E 78 127 102
E 78 128 95
E 78 129 95
E 78 133 97
E 78 134 108
E 78 139 106
E 78 140 101
E 78 142 104
E 78 145 96
E 78 154 97
E 78 156 94
E 79 83 111
E 79 91 103
E 79 99 106
E 79 111 106
E 79 117 93
E 79 118 104
E 79 119 101
E 79 130 101
E 79 133 110
E 79 142 95
E 79 145 96
E 79 149 92
E 79 150 93
E 79 153 100
E 80 85 96
E 80 86 94
E 80 104 102
E 80 132 105
E 80 135 99
E 80 136 97
E 80 137 99
E 80 144 103
E 80 148 94
E 80 154 98
E 80 159 101
E 81 85 106
E 81 88 99
E 81 92 104
E 81 98 97
E 81 101 106
E 81 102 99
E 81 105 101
E 81 106 100
E 81 115 105
E 81 119 91
E 81 123 95
E 81 126 98
E 81 127 103
E 81 130 93
E 81 133 92
E 81 136 97
E 81 142 106
E 81 144 98
E 81 146 102
E 81 147 92
E 81 148 100
E 81 150 98
E 81 151 104
E 81 152 103
E 81 153 105
E 81 154 102
E 81 155 98
E 81 156 100
E 82 90 91
E 82 92 91
E 82 97 102
E 82 103 96
E 82 109 96
E 82 111 94
E 82 112 97
E 82 117 99
E 82 119 103
E 82 124 96
E 82 127 101
E 82 134 97
E 82 136 107
E 82 144 99
E 82 152 96
E 82 153 102
E 82 154 95
E 82 156 100
E 83 88 108
E 83 104 96
E 83 106 93
E 83 109 101
E 83 112 98
E 83 116 101
E 83 125 100
E 83 129 100
E 83 131 103
E 83 146 96
E 83 148 96
E 83 152 99
E 83 159 91
E 84 87 97
E 84 89 94
E 84 90 101
E 84 100 96
E 84 102 98
E 84 111 104
E 84 112 104
E 84 118 97
E 84 124 106
E 84 145 97
E 84 146 98
E 84 149 98
E 84 151 90
E 84 152 94
E 84 153 102
E 84 159 106
E 85 89 97
E 85 94 103
E 85 95 95
E 85 110 95
E 85 115 99
E 85 117 102
E 85 122 96
E 85 129 98
E 85 137 99
E 85 140 99
E 85 152 104
E 85 155 95
E 86 89 98
E 86 91 106
E 86 105 99
E 86 116 105
E 86 122 104
E 86 130 88
E 86 131 94
E 86 132 100
E 86 136 94
E 86 137 108
E 86 155 91
E 86 158 91
E 87 96 100
E 87 100 104
E 87 106 103
E 87 113 102
E 87 128 96
E 87 130 84
E 87 132 102
E 87 139 98
E 87 146 91
E 87 152 86
E 87 154 107
E 87 160 105
E 88 90 102
E 88 92 92
E 88 93 96
E 88 108 99
E 88 114 101
E 88 123 99
E 88 134 104
E 88 141 91
E 88 142 99
E 88 143 96
E 88 145 108
E 88 146 92
E 89 92 101
E 89 95 93
E 89 107 97
E 89 130 103
E 89 135 100
E 89 136 112
E 89 138 103
E 89 139 95
E 89 140 95
E 89 142 101
E 89 145 102
E 89 146 95
E 89 152 92
E 89 158 91
E 89 159 94
E 90 94 95
E 90 96 94
E 90 104 114
E 90 106 97
E 90 109 90
E 90 114 102
E 90 116 95
E 90 118 97
E 90 121 100
E 90 123 93
E 90 124 100
E 90 125 103
E 90 128 98
E 90 133 103
E 90 139 94
E 90 140 96
E 90 147 97
E 90 148 97
E 90 154 107
E 90 159 104
E 91 103 100
E 91 105 95
E 91 106 101
E 91 108 100
E 91 109 101
E 91 122 106
E 91 127 103
E 91 128 92
E 91 130 89
E 91 133 101
E 91 136 100
E 91 139 93
E 91 143 111
E 91 146 105
E 91 148 98
E 92 94 99
E 92 97 101
E 92 99 103
E 92 111 109
E 92 126 94
E 92 131 95
E 92 136 113
E 92 137 108
E 92 149 100
E 92 160 108
E 93 96 101
E 93 104 94
E 93 105 97
E 93 106 101
E 93 108 97
E 93 112 93
E 93 114 96
E 93 126 99
E 93 134 100
E 93 137 93
E 93 138 101
E 93 142 101
E 93 143 102
E 93 147 105
E 93 148 94
E 93 155 94
E 93 156 92
E 93 157 97
E 93 160 102
E 94 104 100
E 94 106 99
E 94 108 101
E 94 120 103
E 94 129 96
E 94 134 100
E 94 137 106
E 94 139 105
E 94 141 93
E 94 145 95
E 94 147 95
E 94 159 111
E 95 103 100
E 95 104 103
E 95 105 96
E 95 108 108
E 95 120 97
E 95 122 102
E 95 124 88
E 95 128 96
E 95 131 97
E 95 143 97
E 95 148 111
E 96 103 99
E 96 105 105
E 96 108 94
E 96 116 111
E 96 118 106
E 96 124 96
E 96 130 100
E 96 135 95
E 96 139 96
E 96 140 100
E 96 142 104
E 96 154 105
E 96 155 103
E 96 157 99
E 96 159 100
E 96 160 92
E 97 98 85
E 97 111 97
E 97 112 95
E 97 113 98
E 97 123 98
E 97 141 102
E 97 149 97
E 98 109 101
E 98 111 100
E 98 118 96
E 98 119 104
E 98 129 107
E 98 131 106
E 98 132 92
E 98 136 96
E 98 142 92
E 98 143 103
E 98 144 104
E 98 145 95
E 98 160 99
E 99 101 95
E 99 107 98
E 99 108 111
E 99 112 106
E 99 113 100
E 99 114 100
E 99 124 99
E 99 126 88
E 99 132 95
E 99 134 85
E 99 137 93
E 99 141 101
E 99 156 96
E 99 158 94
E 100 115 106
E 100 116 95
E 100 117 107
E 100 122 102
E 100 123 99
E 100 124 96
E 100 125 99
E 100 126 95
E 100 128 108
E 100 136 109
E 100 140 102
E 100 156 100
E 101 103 96
E 101 105 94
E 101 110 91
E 101 117 101
E 101 120 96
E 101 122 105
E 101 123 103
E 101 131 104
E 101 132 98
E 101 136 103
E 101 143 100
E 101 149 105
E 101 154 96
E 101 155 98
E 101 156 94
E 101 157 97
E 102 108 91
E 102 112 100
E 102 120 106
E 102 123 102
E 102 128 95
E 102 146 99
E 102 149 98
E 102 151 97
E 102 154 101
E 103 105 105
E 103 107 101
E 103 111 105
E 103 112 99
E 103 114 103
E 103 120 101
E 103 125 99
E 103 134 110
E 103 145 105
E 103 146 104
E 103 151 102
E 103 156 97
E 104 106 99
E 104 110 96
E 104 113 105
E 104 120 98
E 104 124 109
E 104 133 93
E 104 140 97
E 104 159 108
E 105 106 95
E 105 112 100
E 105 113 103
E 105 115 95
E 105 118 95
E 105 120 105
E 105 124 93
E 105 128 101
E 105 138 100
E 105 141 92
E 105 142 103
E 105 144 105
E 105 155 98
E 105 159 102
E 106 120 97
E 106 126 101
E 106 132 98
E 106 143 107
E 106 147 95
E 106 148 93
E 106 157 97
E 106 158 95
E 107 117 98
E 107 121 100
E 107 128 92
E 107 133 104
E 107 138 108
E 107 140 98
E 107 154 96
E 107 155 101
E 107 158 99
E 107 160 99
E 108 118 99
E 108 119 92
E 108 122 110
E 108 126 89
E 108 136 96
E 108 149 96
E 108 156 95
E 108 158 93
E 109 110 93
E 109 120 101
E 109 122 96
E 109 127 92
E 109 130 103
E 109 134 99
E 109 138 99
E 109 146 109
E 109 148 97
E 109 155 95
E 109 157 99
E 109 160 100
E 110 113 94
E 110 124 98
E 110 125 106
E 110 127 94
E 110 134 98
E 110 137 102
E 110 138 99
E 110 141 99
E 110 147 99
E 110 153 94
E 110 154 96
E 111 120 97
E 111 124 96
E 111 130 94
E 111 136 107
E 111 147 101
E 111 149 111
E 112 116 106
E 112 120 97
E 112 131 98
E 112 134 94
E 112 136 92
E 112 139 101
E 112 145 100
E 112 156 92
E 112 158 91
E 112 160 105
E 113 117 97
E 113 119 103
E 113 132 92
E 113 137 108
E 113 142 98
E 113 143 104
E 113 150 103
E 113 151 104
E 113 156 102
E 113 157 101
E 114 115 102
E 114 116 106
E 114 120 106
E 114 127 102
E 114 128 102
E 114 129 97
E 114 130 98
E 114 131 98
E 114 133 98
E 114 139 99
E 114 141 88
E 114 145 98
E 114 146 99
E 114 151 97
E 115 118 94
E 115 120 96
E 115 125 89
E 115 131 102
E 115 132 92
E 115 138 92
E 115 139 86
E 115 140 104
E 115 144 97
E 115 146 105
E 115 155 92
E 116 117 95
E 116 118 96
E 116 123 96
E 116 128 102
E 116 136 112
E 116 141 98
E 116 143 104
E 116 144 95
E 116 147 98
E 116 151 100
E 117 122 101
E 117 129 96
E 117 134 97
E 117 146 100
E 117 147 99
E 117 151 99
E 117 158 91
E 117 159 104
E 118 121 91
E 118 126 102
E 118 130 104
E 118 139 105
E 118 140 106
E 118 142 95
E 118 143 93
E 118 144 94
E 118 148 101
E 118 156 96
E 119 132 92
E 119 139 95
E 119 154 92
E 119 155 99
E 120 131 94
E 120 137 97
E 120 143 105
E 120 145 99
E 120 155 105
E 120 156 104
E 121 135 103
E 121 139 101
E 121 144 100
E 121 147 94
E 121 148 93
E 121 155 111
E 121 160 95
E 122 128 96
E 122 130 107
E 122 132 95
E 122 141 100
E 122 147 96
E 122 150 101
E 122 152 108
E 122 155 100
E 122 158 103
E 123 131 111
E 123 138 96
E 123 140 103
E 123 141 105
E 123 144 96
E 123 153 98
E 123 157 93
E 123 159 96
E 123 160 99
E 124 135 95
E 124 140 98
E 124 145 100
E 124 153 101
E 125 126 90
E 125 132 105
E 125 135 100
E 125 137 101
E 125 147 98
E 125 155 99
E 126 128 104
E 126 142 98
E 126 147 97
E 126 150 98
E 126 151 102
E 126 153 93
E 126 155 97
E 127 132 97
E 127 133 105
E 127 141 99
E 127 142 100
E 127 143 97
E 127 145 100
E 127 152 96
E 127 155 102
E 128 130 96
E 128 132 105
E 128 146 90
E 128 151 99
E 128 152 101
E 129 134 102
E 129 137 98
E 129 142 96
E 129 147 101
E 129 149 104
E 129 151 104
E 129 160 106
E 130 134 96
E 130 146 99
E 130 148 105
E 130 151 99
E 130 154 110
E 130 155 102
E 130 159 93
E 131 132 107
E 131 137 90
E 131 138 97
E 131 142 97
E 131 145 96
E 131 146 107
E 131 148 101
E 132 137 106
E 132 140 104
E 132 144 95
E 132 156 101
E 133 134 91
E 133 140 107
E 133 149 97
E 133 156 93
E 133 160 95
E 134 155 100
E 135 145 96
E 135 147 107
E 135 157 97
E 136 137 95
E 136 138 91
E 136 140 110
E 136 149 102
E 136 150 101
E 136 151 100
E 136 152 106
E 136 153 99
E 136 154 102
E 136 160 104
E 137 145 92
E 137 149 97
E 137 150 101
E 137 152 104
E 137 154 98
E 137 157 102
E 137 160 101
E 138 145 108
E 138 149 107
E 139 140 95
E 139 156 102
E 139 157 97
E 139 159 106
E 140 150 102
E 140 151 98
E 140 152 109
E 140 158 102
E 141 142 102
E 141 143 103
E 141 144 100
E 141 146 103
E 141 153 104
E 141 157 105
E 142 151 107
E 142 158 98
E 143 150 100
E 143 153 100
E 143 159 99
E 144 146 95
E 144 154 97
E 145 147 98
E 145 148 104
E 145 152 100
E 146 150 94
E 146 151 99
E 146 160 99
E 147 148 98
E 147 149 93
E 147 151 105
E 147 154 93
E 148 150 104
E 148 152 100
E 148 159 97
E 149 152 94
E 149 153 89
E 149 157 100
E 149 160 101
E 150 160 95
E 151 152 98
E 152 156 102
E 152 159 98
E 152 160 95
E 154 155 103
E 154 156 98
E 154 160 92
E 155 157 104
E 156 158 90
E 156 160 96
E 158 159 99
E 158 160 98
END

SECTION Terminals
Terminals 40
T 1
T 2
T 3
T 4
T 5
T 6
T 7
T 8
T 9
T 10
T 11
T 12
T 13
T 14
T 15
T 16
T 17
T 18
T 19
T 20
T 21
T 22
T 23
T 24
T 25
T 26
T 27
T 28
T 29
T 30
T 31
T 32
T 33
T 34
T 35
T 36
T 37
T 38
T 39
T 40
END

EOF
